32	0

0	5	2	4	6	7	8
3	5	3	5	9	10	11
9	2	12	13
10	5	9	10	11	12	13
10	5	12	14	15	16	17
5	5	9	10	11	12	13
10	5	9	10	11	12	13
9	5	9	10	11	12	13
7	4	14	15	16	17
9	3	14	16	17
9	3	14	16	17
10	3	18	19	22
3	4	14	15	16	17
7	3	21	24	27
4	3	18	19	22
3	3	18	19	22
2	3	18	19	22
2	4	20	21	24	27
6	5	23	25	26	28	29
3	5	23	25	26	28	29
1	5	23	25	26	28	29
7	2	25	26
8	1	30
4	2	25	26
2	1	30
10	1	31
8	1	30
10	1	30
9	1	30
3	1	31
2	1	32
0	0
